Argumentos: 
./solver.release -i 5 -t 86400 -a 7 -h 86400 -w Testes/Marcos-i5 -m modelo.mod -o modelo.mod 
Seed: 1622589650
hidden-TXT/Sc-n035w4.txt
hidden-TXT/H0-n035w4-0.txt
hidden-TXT/WD-n035w4-9.txt hidden-TXT/WD-n035w4-8.txt hidden-TXT/WD-n035w4-7.txt hidden-TXT/WD-n035w4-7.txt 
Reading model section from modelo.mod...
285 lines were read
Reading data section from Testes/Marcos-i5/5.dat...
7248 lines were read
Generating obj...
Generating H1turnoDia...
Generating H2coberturaMinima...
Generating H3AsucessaoTurnos...
Generating H3BsucessaoTurnos...
Generating H4qualificacao...
Generating S1coberturaOtima...
Generating S2aux1...
Generating S2aux2...
Generating S2aux3...
Generating S2aux7...
Generating S2a...
Generating S2S3aux4...
Generating S2S3aux5...
Generating S2S3aux6...
Generating S2S3aux8...
Generating S2c...
Generating S2chist...
Generating S2d...
Generating S2dHist...
Generating S2b...
Generating S2bHist...
Generating auxS5...
Generating S6a...
Generating S6b...
Generating auxS7...
Generating S7...
Model has been successfully generated
Writing problem data to `Testes/Marcos-i5/5.lp'...
2991683 lines were written
CPX0000  Tried aggregator 2 times.
CPX0000  Aggregator has done 8639 substitutions...
CPX0000  MIP Presolve eliminated 88626 rows and 92378 columns.
CPX0000  MIP Presolve modified 1964 coefficients.
CPX0000  Aggregator did 8639 substitutions.
CPX0000  Reduced MIP has 1008830 rows, 96131 columns, and 3364012 nonzeros.
CPX0000  Reduced MIP has 95899 binaries, 232 generals, 0 SOSs, and 0 indicators.
CPX0000  Presolve time = 13.73 sec. (10470.23 ticks)
CPX0000  Probing time = 0.30 sec. (64.57 ticks)
CPX0000  Tried aggregator 1 time.
CPX0000  MIP Presolve eliminated 14 rows and 14 columns.
CPX0000  MIP Presolve modified 101 coefficients.
CPX0000  Reduced MIP has 1008816 rows, 96117 columns, and 3363929 nonzeros.
CPX0000  Reduced MIP has 95898 binaries, 219 generals, 0 SOSs, and 0 indicators.
CPX0000  Presolve time = 9.23 sec. (5665.55 ticks)
CPX0000  Probing time = 0.30 sec. (65.60 ticks)
CPX0000  Clique table members: 812317.
CPX0000  MIP emphasis: balance optimality and feasibility.
CPX0000  MIP search method: dynamic search.
CPX0000  Parallel mode: none, using 1 thread.
CPX0000  Root relaxation solution time = 49877.44 sec. (11306977.24 ticks)
CPX0000
CPX0000          Nodes                                         Cuts/
CPX0000     Node  Left     Objective  IInf  Best Integer    Best Bound    ItCnt     Gap
CPX0000
CPX0000        0     0      180.0000 16955                    180.0000  5985813
CPX0000
CPX0000  GUB cover cuts applied:  90
CPX0000  Clique cuts applied:  56
CPX0000  Cover cuts applied:  45
CPX0000  Flow cuts applied:  4
CPX0000  Mixed integer rounding cuts applied:  88
CPX0000  Zero-half cuts applied:  182
CPX0000  Gomory fractional cuts applied:  4
CPX0000
CPX0000  Root node processing (before b&c):
CPX0000    Real time             = 86401.54 sec. (14910406.96 ticks)
CPX0000  Sequential b&c:
CPX0000    Real time             =    0.00 sec. (0.00 ticks)
CPX0000                            ------------
CPX0000  Total (root+branch&cut) = 86401.54 sec. (14910406.96 ticks)
H2 understaffing: 349
H3 shiftTypeSuccessions: 9
S1 optimalCoverage: 960
S2a consecutiveShift: 12270 = (9,809 )
S2b consecutiveWorkingDays: 25440 = ( 0,848 )
S3 consecutiveDaysOff: 180 = ( 6,0 )
S4 preferences: 520
S5 completeWeekend: 0
S6 totalAssignments: 9100
S7 totalWorkingWeekeends: 2520
 

Cost Solution: 408990

File "Solucao/n035w4-0-9-8-7-7_w0.txt", unknown skill: HN_0 for nurse HN_0 on day Monday for shift type Early

     Syntax:
     java -jar validator.jar --sce scenario --his history --weeks week_1...week_n --sols sol_1...sol_n [--penaltyonly] [--out outFile] [--verbose]

          scenario           the file containing the scenario
          history            the file containing the initial history
          week_1...week_n    the files containing the week data
          sol_1...sol_n      the files containing the solutions for the weeks
          --penaltyonly      option to print only the penalty value
          --out outfile      option: print output to outfile
          --verbose          option: prints a detailed report of violations per nurse
